StudentsNr = 10;
InstructorsNr = 77;
DaysNr = 2;
SlotsPerDay = 15;
AvailabilitySlotsLenght = 3;
RoomNr = 1;
ProgrammNr = 2;
DegreeNr = 1;
RolesNr = 4;
CoursesNr = 1;
InstructorsProgramm = [{2}, {1, 2}, {2}, {1, 2}, {1, 2}, {1}, {1}, {1}, {1}, {1}, {2}, {2}, {2}, {1, 2}, {1}, {2}, {1}, {2}, {1, 2}, {2}, {2}, {2}, {1}, {1}, {1}, {2}, {1, 2}, {1}, {1, 2}, {1}, {2}, {2}, {1, 2}, {1}, {1, 2}, {2}, {1, 2}, {2}, {1}, {2}, {1, 2}, {1, 2}, {2}, {1}, {2}, {1, 2}, {1, 2}, {1, 2}, {1}, {1}, {2}, {1, 2}, {2}, {1, 2}, {2}, {1}, {1}, {1}, {1, 2}, {2}, {1, 2}, {1}, {1}, {1}, {2}, {1}, {1, 2}, {2}, {1, 2}, {1}, {1}, {1}, {2}, {2}, {1}, {2}, {1}];
InstructorRolesPerProgramm = [|{4, 5, 7, 9, 15, 17, 23, 24, 27, 37, 41, 44, 46, 49, 54, 56, 57, 59, 63, 64, 69, 71, 72, 77}, {4, 5, 7, 8, 14, 15, 19, 24, 28, 39, 42, 46, 54, 57, 61, 64, 72, 77}, {4, 5, 7, 15, 19, 28, 29, 33, 34, 35, 42, 50, 59, 69, 71, 77}, {2, 10, 14, 24, 28, 29, 30, 33, 34, 37, 39, 41, 44, 49, 54, 56, 58, 63, 66, 69, 70}|{1, 4, 5, 12, 20, 21, 22, 27, 31, 32, 36, 37, 38, 41, 46, 54, 55, 59, 68, 69, 73, 74, 76}, {4, 5, 13, 14, 16, 18, 19, 22, 26, 31, 36, 42, 43, 45, 46, 54, 61, 68, 74}, {4, 5, 11, 12, 18, 19, 29, 31, 32, 33, 35, 36, 38, 40, 42, 43, 53, 59, 60, 69, 76}, {2, 3, 11, 14, 20, 21, 22, 26, 29, 31, 33, 37, 38, 40, 41, 51, 53, 54, 55, 60, 68, 69, 73, 76}|];
InstructorsAvailability = [|1, 1, 1, 1, 1, 1, 1, 1, 1, 1, |0, 1, 1, 1, 1, 1, 1, 1, 1, 1, |1, 1, 1, 1, 1, 1, 1, 1, 1, 1, |0, 1, 1, 1, 1, 0, 1, 1, 1, 1, |1, 1, 0, 0, 1, 1, 1, 0, 0, 1, |0, 0, 1, 1, 1, 1, 1, 1, 1, 1, |1, 1, 0, 1, 1, 1, 1, 1, 0, 1, |1, 1, 1, 1, 1, 1, 1, 1, 1, 1, |0, 1, 1, 1, 0, 0, 1, 1, 1, 1, |0, 0, 0, 1, 1, 1, 1, 1, 1, 1, |0, 1, 1, 1, 1, 0, 1, 1, 1, 1, |0, 1, 1, 0, 1, 1, 1, 1, 1, 1, |0, 1, 1, 1, 1, 1, 1, 1, 1, 1, |1, 1, 1, 1, 1, 0, 1, 0, 0, 0, |0, 1, 1, 1, 1, 0, 0, 0, 1, 0, |0, 0, 0, 0, 1, 1, 1, 1, 1, 1, |0, 1, 1, 1, 1, 1, 1, 1, 1, 1, |0, 1, 1, 1, 1, 1, 1, 1, 1, 1, |0, 0, 0, 0, 0, 1, 1, 1, 1, 1, |1, 1, 0, 0, 1, 0, 1, 1, 0, 0, |1, 1, 0, 1, 1, 1, 1, 0, 0, 1, |1, 1, 1, 1, 1, 1, 1, 1, 0, 0, |0, 1, 1, 0, 0, 1, 1, 1, 1, 1, |0, 1, 1, 1, 1, 1, 1, 1, 1, 1, |1, 1, 1, 1, 1, 1, 1, 0, 1, 1, |0, 1, 1, 1, 1, 0, 1, 1, 1, 0, |0, 1, 1, 0, 1, 1, 0, 1, 1, 1, |1, 1, 1, 0, 0, 1, 1, 1, 1, 0, |1, 1, 1, 1, 1, 1, 1, 1, 1, 1, |0, 1, 1, 1, 1, 1, 1, 0, 1, 1, |1, 0, 1, 1, 1, 1, 1, 1, 0, 1, |0, 0, 1, 1, 1, 1, 1, 1, 1, 1, |1, 1, 1, 1, 1, 1, 1, 1, 1, 1, |0, 0, 0, 0, 1, 1, 1, 1, 1, 1, |0, 0, 1, 0, 0, 0, 1, 1, 1, 1, |1, 1, 1, 1, 1, 1, 1, 0, 0, 1, |0, 0, 0, 1, 0, 0, 0, 0, 1, 1, |0, 1, 1, 1, 1, 1, 1, 1, 1, 1, |1, 1, 1, 1, 1, 1, 1, 1, 1, 1, |0, 1, 1, 0, 1, 1, 1, 1, 1, 0, |1, 1, 1, 1, 1, 1, 1, 1, 1, 1, |1, 1, 1, 1, 1, 1, 1, 1, 1, 1, |0, 1, 1, 1, 1, 1, 1, 1, 0, 1, |1, 1, 1, 1, 1, 1, 1, 1, 0, 1, |1, 1, 1, 1, 0, 1, 1, 1, 1, 1, |1, 1, 1, 1, 1, 1, 1, 1, 1, 1, |1, 1, 1, 1, 1, 1, 0, 0, 1, 1, |0, 0, 0, 1, 1, 1, 1, 1, 1, 1, |0, 1, 1, 1, 0, 1, 1, 1, 0, 0, |0, 0, 0, 0, 1, 1, 1, 1, 1, 1, |0, 1, 1, 1, 1, 1, 1, 0, 1, 1, |0, 1, 0, 1, 1, 1, 1, 1, 1, 1, |0, 0, 1, 1, 1, 1, 1, 1, 1, 1, |1, 1, 1, 1, 1, 1, 1, 1, 1, 1, |0, 1, 1, 1, 1, 1, 1, 1, 1, 0, |0, 0, 0, 0, 1, 1, 0, 1, 0, 1, |1, 1, 1, 0, 1, 1, 1, 1, 1, 1, |1, 1, 1, 1, 1, 1, 1, 1, 1, 1, |1, 1, 0, 1, 1, 1, 1, 1, 0, 1, |0, 1, 1, 1, 1, 1, 1, 1, 1, 1, |0, 1, 1, 1, 1, 1, 1, 1, 1, 0, |0, 0, 0, 0, 1, 1, 1, 0, 1, 1, |1, 1, 0, 1, 1, 1, 1, 1, 1, 0, |0, 0, 0, 1, 1, 0, 1, 1, 1, 1, |1, 1, 1, 0, 1, 1, 1, 1, 1, 1, |0, 1, 0, 1, 1, 1, 1, 1, 1, 1, |0, 0, 1, 1, 1, 1, 0, 0, 1, 1, |1, 1, 1, 1, 0, 1, 1, 1, 1, 1, |1, 0, 1, 1, 1, 0, 0, 0, 1, 1, |1, 1, 1, 1, 1, 1, 1, 1, 1, 1, |1, 1, 0, 1, 1, 0, 1, 0, 0, 0, |1, 0, 0, 0, 1, 1, 1, 1, 1, 1, |0, 1, 1, 1, 1, 0, 0, 0, 1, 1, |1, 1, 1, 1, 1, 1, 0, 1, 1, 0, |1, 0, 1, 1, 1, 0, 1, 1, 0, 0, |0, 0, 1, 0, 1, 0, 0, 1, 1, 1, |0, 1, 1, 1, 1, 1, 1, 1, 1, 0|];
StudentsProgramm = [1, 1, 2, 1, 1, 1, 1, 1, 2, 2];
StudentsDegree = [1, 1, 1, 1, 1, 1, 1, 1, 1, 1];
StudentsSupervisorId = [25, 34, 53, 19, 5, 47, 67, 42, 21, 32];
StudentsCourseIds = [{}, {}, {}, {}, {}, {}, {}, {}, {}, {}];
StudentsAvailability = [|0, 0, 0, 0, 0, 0, 0, 1, 1, 1, |1, 1, 1, 0, 1, 1, 1, 1, 0, 0, |1, 0, 1, 1, 0, 0, 0, 0, 1, 1, |0, 1, 1, 1, 1, 1, 1, 1, 1, 1, |1, 0, 0, 0, 1, 1, 1, 1, 1, 1, |1, 1, 1, 1, 1, 1, 1, 1, 0, 0, |1, 1, 1, 1, 1, 1, 0, 0, 0, 0, |0, 1, 1, 1, 1, 1, 1, 1, 1, 1, |0, 0, 0, 1, 1, 1, 1, 1, 1, 1, |1, 1, 1, 1, 1, 1, 1, 1, 1, 1|];
TheoryticalMinCard = [1, 0, 0, 0, 0, 1, 1, 0, 0, 0];
CoursesInstructorIds = [{2, 3, 4, 7, 8, 9, 12, 13, 14, 15, 16, 17, 18, 19, 20, 21, 22, 23, 24, 27, 28, 31, 32, 34, 35, 37, 39, 40, 42, 43, 44, 45, 46, 47, 48, 50, 51, 54, 55, 57, 58, 60, 69, 73, 76, 77}];
RolesDemands = [8, 4, 14, 12];
RolesContinuity = [1, 2, 3];
ExamLen = [2, 2, 2, 2, 2, 2, 2, 2, 2, 2];
LunchTsMinLen = 1;
LunchStarts = [7..11, 21..23];
SupervisorAvailable = 5;
OptimalLunchLenght = [2, 2];
OptimalStartTs = [2, 1];
OptimalFinishTs = [0, 14];
MinimizeRooms = 400;
RolesSoftContinuity = [|1, 2, 3, 4|3, 4, 4, 3|];
SameDegreeInRoom = 20;
Mergeability = 1;
